NAME: Route
NUMBER_OF_STORES: 5
NUMBER_OF_ORDERS: 4
NUMBER_OF_VEHICLES: 1
NUMBER_OF_DEPOT: 1
NODE_COORD_SECTION
57299215606db5a50e041ddf 21.015555 105.85152399999993 57299215606db5a50e041ddf
573ac282d008fffc3502c8e9 21.028274 105.80265789999999 O-LJ5RD09
573ac2a4d008fffc3502c8ea 21.026131 105.84661000000006 O-60SSCKY
573ac2c9d008fffc3502c8eb 21.032785 105.80192 O-GBICUPC
573ac2f8d008fffc3502c8ec 21.006612 105.82305300000007 O-VFRT0WR
DEMAND_SECTION
573ac282d008fffc3502c8e9 573ac282d008fffc3502c8e9 -10 -10 50580 57780 300 0
573ac2a4d008fffc3502c8ea 573ac2a4d008fffc3502c8ea -10 -10 50580 57780 300 0
573ac2c9d008fffc3502c8eb 573ac2c9d008fffc3502c8eb -10 -10 50580 57780 300 0
573ac2f8d008fffc3502c8ec 573ac2f8d008fffc3502c8ec -10 -10 50580 57780 300 0
DEPOT_SECTION
DEPORT_1 57299215606db5a50e041ddf 28800 79200
VEHICLES_SECTION
BIKE: 1
TRUCK: 0
57299233606db5a50e041de0 DEPORT_1 1000 100 35 25 200000 300 28800 79200 43200 46800
EOF